<instance format="XCSP3" type="COP">
<variables>
<var id="xe_0"> 14 28 42 56 84 98 126 140 168 182 196 210 238 266 280 308 322 336 350 364 378 392 406 420 434 448 462 476 490 504 518 546 560 588 602 616 630 644 658 686 700 714 728 </var>
<var id="xr_0"> 14 28 42 56 70 84 98 112 126 140 154 168 182 196 210 224 238 252 266 280 294 308 322 336 350 364 378 392 406 420 434 448 462 476 490 504 518 532 546 560 574 588 602 630 644 658 672 686 700 714 728 </var>
<var id="xe_1"> 14 28 42 56 70 84 98 112 126 140 154 168 182 196 210 224 238 252 266 280 294 308 322 336 350 364 378 392 406 434 448 462 476 490 504 518 532 546 560 574 588 602 616 630 644 658 672 686 700 714 728 </var>
<var id="xr_1"> 14 28 42 56 70 84 98 112 126 140 154 168 182 196 210 224 238 252 266 280 294 308 322 336 350 364 378 392 406 420 434 448 462 476 490 504 518 532 546 560 574 588 602 616 630 658 672 686 700 714 728 </var>
<var id="xe_2"> 14 42 56 70 84 98 112 126 140 154 168 196 210 224 238 252 294 308 322 336 350 364 378 392 406 420 434 448 462 476 490 504 518 532 560 574 588 630 644 658 700 714 728 </var>
<var id="xr_2"> 14 28 42 56 70 84 98 126 140 154 182 196 210 224 238 252 266 280 322 350 378 392 406 420 434 448 462 476 490 504 518 532 546 560 588 602 616 630 644 672 700 714 </var>
<var id="xe_3"> 14 42 56 70 84 98 112 126 140 154 168 196 210 224 238 252 266 280 294 308 322 336 378 392 406 420 434 448 462 490 504 518 532 546 560 574 588 602 616 630 644 658 672 686 700 714 </var>
<var id="xr_3"> 14 28 42 70 84 112 126 154 168 182 196 210 224 238 252 266 280 294 308 322 336 350 364 392 406 434 448 462 476 490 504 518 532 546 560 574 588 602 616 630 658 672 686 714 728 </var>
<var id="xe_4"> 28 42 56 70 84 98 112 126 140 154 168 182 196 210 224 238 252 266 280 294 308 322 336 350 364 378 392 406 420 434 448 462 476 490 504 518 532 560 574 588 602 616 630 644 658 672 686 700 714 728 </var>
<var id="xr_4"> 14 42 56 70 84 112 126 140 154 168 182 196 210 238 252 266 280 294 308 322 336 350 364 378 392 406 420 434 448 462 476 490 504 518 532 546 560 574 588 602 616 630 644 672 686 700 714 728 </var>
<var id="xe_5"> 14 28 42 56 70 84 98 112 126 140 154 168 182 196 210 224 238 252 266 280 294 308 322 336 350 364 378 392 406 420 434 448 462 476 490 504 518 532 546 560 574 588 602 616 630 644 658 672 686 700 714 728 </var>
<var as="xe_5" id="xr_5"/>
<var id="xe_6"> 14 28 42 70 84 98 112 126 140 154 168 182 196 210 224 238 252 266 280 294 308 322 350 364 392 406 420 476 490 504 518 532 546 560 574 602 616 630 644 658 672 686 700 714 728 </var>
<var id="xr_6"> 14 28 42 70 84 98 112 140 154 168 182 196 224 238 252 266 280 294 308 336 350 364 378 392 420 448 462 476 504 518 532 546 560 574 588 602 616 630 644 658 672 686 </var>
<var id="xe_7"> 14 28 42 56 70 84 98 112 126 140 168 182 196 210 224 238 252 266 280 294 350 364 378 392 406 420 434 448 476 490 504 518 532 546 560 588 602 616 644 700 728 </var>
<var id="xr_7"> 14 28 42 56 70 84 98 126 140 154 168 182 196 210 224 238 252 266 280 294 308 322 336 350 364 378 392 406 420 434 448 462 476 490 504 518 532 546 560 574 588 602 616 630 644 658 672 686 700 714 728 </var>
<var id="xe_8"> 28 42 56 70 140 154 168 182 196 210 238 252 266 280 294 322 336 350 378 406 420 434 448 462 476 504 518 532 546 560 574 602 616 630 644 658 672 686 700 714 </var>
<var id="xr_8"> 14 28 42 56 70 84 98 112 126 140 154 168 182 196 210 224 238 252 266 280 294 308 322 336 350 364 392 406 420 434 448 462 476 490 504 532 546 560 574 588 602 616 630 644 658 672 686 700 714 728 </var>
<var id="xe_9"> 14 42 56 70 84 98 112 126 140 154 168 182 196 210 224 238 252 266 280 294 308 322 336 350 364 378 392 406 420 476 490 504 518 546 588 616 630 658 672 700 714 </var>
<var id="xr_9"> 28 42 70 84 98 112 126 140 182 224 238 252 266 280 294 308 322 336 350 364 378 392 406 420 434 448 462 476 490 518 532 546 560 574 588 602 630 658 672 686 700 714 </var>
<var id="xe_10"> 14 42 56 70 84 98 112 126 140 154 168 182 196 210 224 238 252 266 280 294 308 322 336 350 364 392 406 420 434 448 476 490 504 518 532 546 574 588 602 616 630 644 658 672 686 700 714 </var>
<var id="xr_10"> 14 28 42 84 98 112 126 140 154 168 182 196 210 238 252 266 280 294 308 336 350 364 378 392 406 420 434 462 476 490 504 518 532 546 560 574 588 602 616 644 658 672 686 700 714 728 </var>
<var id="xe_11"> 14 28 42 56 70 84 98 112 126 140 154 168 182 196 210 238 252 266 280 294 308 322 336 350 364 378 406 420 434 448 462 476 490 504 518 532 546 560 574 588 602 616 630 644 672 686 714 728 </var>
<var id="xr_11"> 14 28 42 56 70 84 98 126 140 154 168 182 196 224 238 252 266 280 294 308 322 336 350 364 378 392 406 434 448 462 476 490 504 518 532 560 574 588 602 630 658 672 686 700 714 728 </var>
<var as="xr_7" id="xe_12"/>
<var id="xr_12"> 14 28 42 56 70 84 98 112 126 154 168 182 224 238 252 266 294 308 322 336 364 378 392 406 420 434 448 462 476 490 504 518 546 560 574 588 602 616 630 644 658 672 714 728 </var>
<var id="xe_13"> 28 42 56 70 84 98 112 126 140 154 168 182 196 224 238 266 280 294 308 322 336 350 364 378 392 406 420 434 448 462 476 490 504 518 532 546 560 574 588 602 630 644 658 672 700 714 </var>
<var id="xr_13"> 14 28 42 56 70 84 98 112 126 140 182 196 210 224 238 266 280 294 322 336 364 378 392 406 420 448 462 476 490 518 532 546 560 574 588 602 616 630 644 658 686 714 728 </var>
<var id="xe_14"> 14 28 42 56 70 84 98 112 126 140 154 168 196 210 224 238 252 280 294 308 336 350 364 378 392 406 434 448 462 476 490 518 546 560 574 588 602 630 644 658 672 700 714 728 </var>
<var id="xr_14"> 28 42 56 70 84 98 126 168 182 196 210 224 252 266 280 294 308 322 336 350 364 378 392 448 462 476 490 504 518 532 546 574 630 644 658 672 686 700 714 728 </var>
<var as="xe_5" id="xe_15"/>
<var id="xr_15"> 14 28 70 84 98 112 126 140 154 168 224 252 266 280 294 322 336 364 378 392 406 448 462 476 490 518 532 546 560 574 588 602 616 630 644 658 686 700 714 728 </var>
<var as="xe_5" id="xe_16"/>
<var id="xr_16"> 14 28 42 56 70 84 98 112 168 182 196 238 252 266 280 294 308 322 336 350 364 392 406 420 434 448 462 490 504 518 532 546 560 574 588 602 616 630 644 658 672 686 700 714 728 </var>
<var id="xe_17"> 14 28 42 56 70 84 126 140 154 168 182 210 224 238 252 266 280 336 350 406 420 434 448 462 476 490 504 518 532 546 560 574 588 602 630 644 658 672 686 714 728 </var>
<var id="xr_17"> 14 28 42 70 84 126 140 154 182 196 210 224 238 252 266 280 294 308 336 350 364 378 392 406 434 448 462 476 490 504 518 546 560 574 588 602 630 644 658 672 686 700 714 728 </var>
<var id="xe_18"> 14 28 42 56 70 84 98 112 140 168 182 196 224 238 252 266 280 294 308 322 350 392 406 420 434 448 462 490 504 518 532 546 560 574 588 602 616 644 700 714 728 </var>
<var id="xr_18"> 14 28 42 56 70 84 98 126 140 154 168 196 210 224 238 252 266 280 294 308 322 350 364 392 434 448 476 490 504 518 532 560 574 588 602 616 630 644 672 686 700 714 728 </var>
<var id="xe_19"> 14 28 56 70 84 98 112 126 140 168 182 196 210 224 238 266 280 294 308 322 350 364 392 406 434 448 462 476 504 532 546 560 574 588 616 630 658 672 686 714 728 </var>
<var id="xr_19"> 14 28 42 56 70 112 126 154 168 182 196 210 224 238 252 266 280 294 308 322 336 350 364 378 392 406 448 462 476 490 504 518 532 546 560 588 602 616 630 644 658 686 700 714 728 </var>
<var as="xe_5" id="xe_20"/>
<var id="xr_20"> 14 28 42 56 70 84 98 126 140 154 168 182 196 210 224 252 266 280 294 308 322 336 350 364 378 392 406 420 448 462 476 490 504 518 546 560 574 588 602 616 630 644 672 686 700 714 728 </var>
<var id="xe_21"> 14 28 42 56 70 84 98 140 168 182 196 210 224 238 252 266 280 294 336 350 364 378 392 406 420 434 462 476 504 532 546 560 574 588 602 630 644 658 686 728 </var>
<var id="xr_21"> 14 28 42 56 70 84 98 112 126 140 168 182 196 210 224 238 252 266 280 294 308 336 350 364 378 392 406 420 448 462 476 490 504 518 532 546 560 588 602 616 630 644 658 672 686 700 714 728 </var>
<var as="xe_5" id="xe_22"/>
<var id="xr_22"> 14 42 56 70 84 98 112 126 154 168 182 196 210 224 266 280 308 336 350 364 378 392 406 420 434 448 462 476 504 518 546 560 574 588 602 630 644 672 700 714 </var>
<var id="xe_23"> 14 28 42 70 98 112 126 140 168 182 196 210 224 238 252 266 280 294 308 322 336 364 378 392 406 420 476 490 504 518 532 560 574 588 602 616 630 644 658 672 686 700 714 </var>
<var id="xr_23"> 14 28 42 56 70 84 98 112 140 154 168 182 196 210 224 238 252 266 280 294 308 336 350 364 378 392 406 420 448 462 476 490 504 518 532 546 560 574 588 602 616 630 644 658 672 686 700 714 728 </var>
<var id="xe_24"> 14 28 42 56 70 84 98 112 126 140 154 168 182 196 210 224 238 252 266 280 294 308 322 336 350 364 378 392 406 420 434 462 476 490 504 518 532 546 560 574 588 602 630 644 658 672 686 700 714 728 </var>
<var id="xr_24"> 14 28 42 56 70 84 98 112 126 140 154 182 196 210 224 252 266 280 294 308 336 350 364 378 392 406 420 434 448 462 476 490 504 518 532 546 560 574 588 602 616 658 672 686 700 728 </var>
<var id="xe_25"> 14 28 42 56 70 84 98 112 126 140 154 168 182 196 210 224 252 266 280 308 322 336 350 378 392 406 420 434 448 462 476 490 504 532 546 560 574 588 602 616 630 658 672 686 700 714 728 </var>
<var as="xe_5" id="xr_25"/>
<var id="xe_26"> 14 28 42 56 70 84 98 112 126 140 168 182 196 210 224 238 252 266 280 294 308 322 336 364 378 392 406 434 448 490 504 546 560 574 588 616 644 658 672 686 700 714 728 </var>
<var id="xr_26"> 14 28 42 56 70 84 98 112 126 140 154 168 182 196 210 224 238 252 266 280 294 308 322 336 350 364 378 406 420 434 448 462 476 490 504 518 532 546 560 574 588 602 616 630 644 658 672 686 714 728 </var>
<var id="xe_27"> 14 28 42 56 70 84 98 126 140 154 168 182 196 210 224 238 252 266 280 294 322 336 350 364 392 406 420 434 448 462 476 504 518 532 546 560 574 602 616 630 644 658 672 686 700 714 728 </var>
<var id="xr_27"> 14 28 42 56 70 84 98 112 126 140 154 168 182 196 210 224 238 252 266 280 294 308 322 336 350 364 378 392 406 420 434 462 476 504 518 532 546 560 574 588 602 616 630 644 658 672 700 714 728 </var>
<var id="xe_28"> 14 28 42 56 70 84 98 112 126 154 168 210 224 238 252 280 294 308 322 336 350 364 378 392 420 434 448 462 476 504 518 532 546 560 588 616 644 658 700 714 728 </var>
<var id="xr_28"> 14 28 42 70 84 98 112 126 140 154 168 196 210 224 238 252 266 280 294 308 322 336 350 364 378 392 420 434 448 476 490 518 532 546 560 574 588 602 616 630 644 658 686 700 714 728 </var>
<var id="xe_29"> 14 28 42 56 70 84 98 126 140 168 182 196 210 224 238 252 266 280 294 308 322 336 350 364 378 392 406 420 434 448 462 476 490 504 518 532 560 574 588 616 630 644 658 672 686 700 714 728 </var>
<var as="xr_1" id="xr_29"/>
<var id="xe_30"> 14 28 42 56 84 98 112 126 154 168 182 196 224 238 252 266 280 294 308 322 336 350 364 378 392 406 420 434 448 462 476 490 504 518 532 546 560 574 602 616 630 644 658 686 700 714 728 </var>
<var id="xr_30"> 14 28 42 56 70 98 112 126 140 154 168 182 210 224 238 252 266 280 294 308 322 336 350 364 378 392 420 434 448 462 476 490 532 546 560 588 616 630 644 658 686 700 714 728 </var>
<var id="xe_31"> 14 42 56 70 84 98 112 126 140 154 168 182 196 210 224 238 252 266 280 294 308 322 336 364 378 392 406 420 434 448 462 476 490 504 532 546 560 574 588 602 616 630 644 658 672 686 700 714 728 </var>
<var as="xe_5" id="xr_31"/>
<var id="xe_32"> 14 28 42 56 70 98 112 140 154 168 182 210 224 238 252 266 280 294 308 322 350 364 378 392 406 420 434 490 504 518 532 546 588 602 616 630 644 658 672 686 700 714 728 </var>
<var id="xr_32"> 14 28 42 56 70 84 98 112 126 154 168 182 196 210 224 238 252 266 280 294 308 322 336 350 364 378 392 406 420 434 448 462 476 490 504 518 532 546 560 574 588 602 630 644 658 672 686 700 714 728 </var>
<var as="xr_0" id="xe_33"/>
<var id="xr_33"> 14 28 42 56 70 84 98 112 126 140 154 168 182 196 210 224 238 252 266 280 294 308 322 336 350 364 378 392 406 420 434 448 462 476 490 504 518 546 560 574 616 630 644 658 672 686 700 714 728 </var>
<var id="xe_34"> 14 28 42 56 70 84 98 112 126 140 154 168 182 196 210 224 238 252 266 280 294 308 336 350 378 392 406 420 434 448 462 476 490 504 518 532 546 560 574 588 602 616 630 644 658 672 686 700 714 728 </var>
<var id="xr_34"> 14 28 42 56 70 84 98 140 154 168 182 196 210 224 238 252 266 280 294 308 322 336 364 392 406 420 434 448 462 476 490 504 518 532 546 560 574 602 616 630 644 658 672 686 700 728 </var>
<var id="xe_35"> 14 28 42 56 70 84 98 112 126 140 154 168 196 210 224 238 252 308 322 336 350 364 378 392 406 420 434 448 462 476 490 504 518 532 546 560 574 588 602 616 630 644 658 672 686 700 714 728 </var>
<var id="xr_35"> 28 56 70 84 98 112 126 140 154 182 196 210 224 238 252 266 280 308 322 364 378 406 420 434 448 462 476 490 504 518 532 546 560 574 588 602 630 658 672 686 700 714 </var>
<var id="xe_36"> 14 28 42 56 84 112 126 140 154 168 182 196 210 224 238 252 266 280 294 308 322 336 350 364 378 392 406 420 434 448 462 476 490 504 518 532 546 560 574 588 602 616 630 644 672 686 700 714 728 </var>
<var id="xr_36"> 28 42 56 70 84 98 126 140 154 182 196 238 266 294 308 322 336 350 364 378 392 406 420 434 448 462 476 490 504 518 532 546 560 574 588 602 616 630 644 658 672 686 700 728 </var>
<var id="xe_37"> 28 42 56 84 98 126 140 154 168 182 196 210 238 252 266 280 294 308 322 336 364 378 392 434 462 476 504 518 532 546 560 574 588 602 616 630 644 672 686 714 728 </var>
<var id="xr_37"> 14 28 42 56 70 84 112 126 140 168 196 224 238 252 266 280 294 308 322 336 350 364 378 392 406 420 434 448 462 476 490 504 518 546 560 574 588 602 616 630 644 658 672 686 700 714 </var>
<var id="xe_38"> 14 28 56 70 84 112 140 168 182 210 224 238 252 266 280 294 308 322 336 364 378 392 406 434 448 462 476 490 504 518 532 546 560 574 588 602 630 658 672 686 700 728 </var>
<var id="xr_38"> 14 28 42 56 70 84 98 112 126 140 154 168 182 196 210 224 238 252 266 280 294 308 336 350 364 378 392 406 420 434 448 462 476 490 504 518 532 546 560 574 588 602 616 630 644 672 686 700 714 728 </var>
<var id="xe_39"> 14 28 42 56 70 84 98 112 126 140 154 168 182 196 210 224 238 252 266 294 308 322 336 350 378 392 406 420 434 462 476 490 504 518 532 546 574 588 602 616 630 644 658 672 700 728 </var>
<var id="xr_39"> 14 28 42 56 70 98 112 126 140 154 168 196 210 224 238 252 266 280 294 308 322 336 350 364 378 392 406 420 434 448 462 476 490 504 518 532 546 560 574 588 602 616 630 644 658 672 686 700 714 728 </var>
<var id="xe_40"> 28 42 56 70 84 112 126 140 154 168 182 196 210 224 252 266 280 308 350 364 378 392 406 434 462 476 490 504 518 532 546 560 574 588 602 616 630 658 672 686 700 714 728 </var>
<var id="xr_40"> 14 28 42 56 70 84 98 112 126 140 154 168 182 196 210 224 238 252 266 280 294 308 322 350 364 378 392 406 420 434 448 476 490 504 518 546 560 574 588 602 616 630 644 658 672 686 700 714 728 </var>
<var id="xe_41"> 14 28 42 56 70 84 98 112 126 140 154 182 196 210 224 252 280 294 308 322 336 364 378 392 406 420 434 448 462 476 490 504 518 532 546 560 574 588 602 616 630 644 658 686 700 714 728 </var>
<var id="xr_41"> 14 28 42 56 70 84 98 112 126 140 154 168 182 196 210 224 238 252 266 280 294 308 322 336 350 364 378 392 406 420 434 448 462 476 490 504 532 546 560 574 588 602 616 630 644 658 672 686 700 714 728 </var>
<var id="xe_42"> 14 28 42 56 70 98 112 126 140 154 196 210 224 238 252 280 294 308 322 336 350 364 378 392 406 420 448 462 476 490 504 518 532 546 560 602 616 630 644 658 672 700 714 728 </var>
<var id="xr_42"> 28 42 56 84 98 112 140 154 168 182 196 224 238 294 308 336 350 364 378 392 406 434 448 462 490 504 532 546 560 574 602 616 630 644 658 672 686 700 714 728 </var>
<var id="xe_43"> 42 56 70 84 98 112 126 154 168 182 224 252 266 280 294 308 322 350 364 378 392 406 420 434 448 462 476 504 518 532 546 560 574 588 602 616 630 658 686 700 714 728 </var>
<var id="xr_43"> 14 28 42 56 70 84 98 140 154 168 182 196 210 252 266 294 308 322 336 350 364 378 392 406 420 434 448 490 504 518 532 546 560 574 588 602 616 630 644 658 672 686 700 728 </var>
<var id="xe_44"> 28 42 126 140 154 182 196 210 224 252 266 280 294 308 322 336 350 364 392 434 448 462 476 490 504 518 532 546 560 574 588 602 616 630 644 658 672 686 700 714 728 </var>
<var id="xr_44"> 14 28 42 56 70 84 112 126 140 154 168 182 196 210 224 238 252 266 280 294 308 322 336 350 364 378 392 406 420 434 448 462 476 490 504 532 560 574 588 602 616 630 644 658 686 700 714 </var>
<var id="xe_45"> 14 28 42 98 112 126 140 154 168 182 196 210 224 238 266 280 294 308 336 350 364 378 392 406 420 434 448 462 476 490 504 518 532 546 560 574 588 602 616 630 644 658 672 686 700 714 728 </var>
<var id="xr_45"> 14 28 42 56 70 84 98 112 126 140 154 168 182 196 210 224 238 252 266 280 294 308 322 336 350 364 378 392 406 420 434 448 462 476 490 504 518 532 546 560 574 588 602 616 630 644 658 672 686 714 728 </var>
<var id="xe_46"> 14 28 42 70 84 98 126 154 168 182 196 210 224 238 252 266 280 294 308 322 336 350 364 378 392 406 420 434 448 462 476 490 504 518 532 546 560 574 588 630 644 658 672 686 700 714 728 </var>
<var id="xr_46"> 14 28 56 70 98 112 126 140 168 182 210 224 238 280 294 308 322 336 350 364 378 392 406 420 434 448 476 490 518 546 574 616 630 644 658 672 686 700 714 728 </var>
<var id="xe_47"> 14 28 42 56 84 98 112 126 140 154 182 210 224 238 252 266 280 294 308 322 336 350 364 392 406 420 434 448 462 476 490 504 518 532 546 560 574 602 616 630 644 658 686 700 714 728 </var>
<var id="xr_47"> 14 28 56 70 98 112 126 140 168 182 210 224 266 280 294 322 336 350 364 378 392 406 420 434 448 462 476 490 504 532 546 560 574 588 602 616 630 658 672 700 714 728 </var>
<var id="xe_48"> 14 28 42 56 70 84 98 112 126 140 154 168 182 196 210 224 238 252 266 280 294 308 322 336 364 378 392 406 420 434 448 476 490 504 518 532 546 560 574 588 602 616 630 644 658 672 686 700 714 728 </var>
<var id="xr_48"> 14 28 42 56 70 84 112 126 140 154 168 182 196 210 224 238 252 266 280 294 308 322 336 350 364 378 392 406 420 434 448 462 476 490 504 518 532 560 574 588 602 616 630 658 686 700 714 728 </var>
<var id="xe_49"> 14 28 42 56 70 84 98 112 126 140 154 168 182 196 210 224 238 252 266 280 294 308 322 350 364 392 406 420 434 448 462 476 490 504 518 532 546 560 574 588 602 616 630 644 658 672 686 700 714 728 </var>
<var id="xr_49"> 14 28 42 56 70 84 98 112 126 140 154 168 182 196 210 224 252 266 280 308 322 336 350 364 378 392 406 434 448 462 476 490 504 518 532 546 560 574 588 602 616 630 644 658 686 700 714 728 </var>
<var id="maxFrequency"> 0..999 </var>
<var id="minFrequency"> 0..14 </var>
<var id="spanFrequency"> 0..999 </var>
</variables>
<constraints>
<group note="A station must have delta between emitting and receiving frequencies">
<intension> lt(%0,dist(%1,%2)) </intension>
<args> 238 xe_0 xr_0 </args>
<args> 238 xe_1 xr_1 </args>
<args> 238 xe_2 xr_2 </args>
<args> 238 xe_3 xr_3 </args>
<args> 238 xe_4 xr_4 </args>
<args> 238 xe_5 xr_5 </args>
<args> 238 xe_6 xr_6 </args>
<args> 238 xe_7 xr_7 </args>
<args> 238 xe_8 xr_8 </args>
<args> 238 xe_9 xr_9 </args>
<args> 238 xe_10 xr_10 </args>
<args> 238 xe_11 xr_11 </args>
<args> 238 xe_12 xr_12 </args>
<args> 238 xe_13 xr_13 </args>
<args> 238 xe_14 xr_14 </args>
<args> 238 xe_15 xr_15 </args>
<args> 238 xe_16 xr_16 </args>
<args> 238 xe_17 xr_17 </args>
<args> 238 xe_18 xr_18 </args>
<args> 238 xe_19 xr_19 </args>
<args> 238 xe_20 xr_20 </args>
<args> 238 xe_21 xr_21 </args>
<args> 238 xe_22 xr_22 </args>
<args> 238 xe_23 xr_23 </args>
<args> 238 xe_24 xr_24 </args>
<args> 238 xe_25 xr_25 </args>
<args> 238 xe_26 xr_26 </args>
<args> 238 xe_27 xr_27 </args>
<args> 238 xe_28 xr_28 </args>
<args> 238 xe_29 xr_29 </args>
<args> 238 xe_30 xr_30 </args>
<args> 238 xe_31 xr_31 </args>
<args> 238 xe_32 xr_32 </args>
<args> 238 xe_33 xr_33 </args>
<args> 238 xe_34 xr_34 </args>
<args> 238 xe_35 xr_35 </args>
<args> 238 xe_36 xr_36 </args>
<args> 238 xe_37 xr_37 </args>
<args> 238 xe_38 xr_38 </args>
<args> 238 xe_39 xr_39 </args>
<args> 238 xe_40 xr_40 </args>
<args> 238 xe_41 xr_41 </args>
<args> 238 xe_42 xr_42 </args>
<args> 238 xe_43 xr_43 </args>
<args> 238 xe_44 xr_44 </args>
<args> 238 xe_45 xr_45 </args>
<args> 238 xe_46 xr_46 </args>
<args> 238 xe_47 xr_47 </args>
<args> 238 xe_48 xr_48 </args>
<args> 238 xe_49 xr_49 </args>
</group>
<group note="If interferences between two stations then must frequencies must be Delta apart...(emitting, emitting)">
<intension> lt(%0,dist(%1,%2)) </intension>
<args> 30 xe_0 xe_7 </args>
<args> 20 xe_0 xe_18 </args>
<args> 20 xe_0 xe_36 </args>
<args> 30 xe_0 xe_35 </args>
<args> 40 xe_0 xe_31 </args>
<args> 30 xe_1 xe_22 </args>
<args> 30 xe_1 xe_19 </args>
<args> 40 xe_2 xe_11 </args>
<args> 20 xe_2 xe_26 </args>
<args> 50 xe_3 xe_5 </args>
<args> 30 xe_3 xe_44 </args>
<args> 30 xe_3 xe_6 </args>
<args> 50 xe_4 xe_7 </args>
<args> 30 xe_5 xe_10 </args>
<args> 50 xe_6 xe_30 </args>
<args> 30 xe_6 xe_24 </args>
<args> 50 xe_6 xe_22 </args>
<args> 40 xe_6 xe_12 </args>
<args> 50 xe_6 xe_29 </args>
<args> 20 xe_6 xe_46 </args>
<args> 30 xe_6 xe_37 </args>
<args> 50 xe_6 xe_13 </args>
<args> 40 xe_6 xe_11 </args>
<args> 50 xe_7 xe_35 </args>
<args> 20 xe_8 xe_45 </args>
<args> 20 xe_9 xe_23 </args>
<args> 40 xe_10 xe_16 </args>
<args> 30 xe_10 xe_11 </args>
<args> 30 xe_12 xe_35 </args>
<args> 30 xe_13 xe_26 </args>
<args> 20 xe_13 xe_35 </args>
<args> 50 xe_14 xe_49 </args>
<args> 40 xe_15 xe_21 </args>
<args> 30 xe_15 xe_20 </args>
<args> 40 xe_16 xe_28 </args>
<args> 40 xe_16 xe_48 </args>
<args> 30 xe_17 xe_39 </args>
<args> 20 xe_17 xe_35 </args>
<args> 20 xe_18 xe_21 </args>
<args> 50 xe_18 xe_36 </args>
<args> 30 xe_19 xe_45 </args>
<args> 20 xe_19 xe_38 </args>
<args> 50 xe_19 xe_25 </args>
<args> 30 xe_19 xe_46 </args>
<args> 30 xe_22 xe_24 </args>
<args> 50 xe_22 xe_49 </args>
<args> 20 xe_22 xe_27 </args>
<args> 40 xe_23 xe_34 </args>
<args> 20 xe_23 xe_47 </args>
<args> 40 xe_23 xe_44 </args>
<args> 50 xe_24 xe_32 </args>
<args> 20 xe_25 xe_39 </args>
<args> 40 xe_27 xe_40 </args>
<args> 50 xe_27 xe_33 </args>
<args> 30 xe_27 xe_29 </args>
<args> 40 xe_35 xe_43 </args>
<args> 30 xe_41 xe_47 </args>
<args> 40 xe_43 xe_46 </args>
</group>
<group note="If interferences between two stations then must frequencies must be Delta apart...(emitting, receiving)">
<intension> lt(%0,dist(%1,%2)) </intension>
<args> 30 xe_0 xr_7 </args>
<args> 20 xe_0 xr_18 </args>
<args> 20 xe_0 xr_36 </args>
<args> 30 xe_0 xr_35 </args>
<args> 40 xe_0 xr_31 </args>
<args> 30 xe_1 xr_22 </args>
<args> 30 xe_1 xr_19 </args>
<args> 40 xe_2 xr_11 </args>
<args> 20 xe_2 xr_26 </args>
<args> 50 xe_3 xr_5 </args>
<args> 30 xe_3 xr_44 </args>
<args> 30 xe_3 xr_6 </args>
<args> 50 xe_4 xr_7 </args>
<args> 30 xe_5 xr_10 </args>
<args> 50 xe_6 xr_30 </args>
<args> 30 xe_6 xr_24 </args>
<args> 50 xe_6 xr_22 </args>
<args> 40 xe_6 xr_12 </args>
<args> 50 xe_6 xr_29 </args>
<args> 20 xe_6 xr_46 </args>
<args> 30 xe_6 xr_37 </args>
<args> 50 xe_6 xr_13 </args>
<args> 40 xe_6 xr_11 </args>
<args> 50 xe_7 xr_35 </args>
<args> 20 xe_8 xr_45 </args>
<args> 20 xe_9 xr_23 </args>
<args> 40 xe_10 xr_16 </args>
<args> 30 xe_10 xr_11 </args>
<args> 30 xe_12 xr_35 </args>
<args> 30 xe_13 xr_26 </args>
<args> 20 xe_13 xr_35 </args>
<args> 50 xe_14 xr_49 </args>
<args> 40 xe_15 xr_21 </args>
<args> 30 xe_15 xr_20 </args>
<args> 40 xe_16 xr_28 </args>
<args> 40 xe_16 xr_48 </args>
<args> 30 xe_17 xr_39 </args>
<args> 20 xe_17 xr_35 </args>
<args> 20 xe_18 xr_21 </args>
<args> 50 xe_18 xr_36 </args>
<args> 30 xe_19 xr_45 </args>
<args> 20 xe_19 xr_38 </args>
<args> 50 xe_19 xr_25 </args>
<args> 30 xe_19 xr_46 </args>
<args> 30 xe_22 xr_24 </args>
<args> 50 xe_22 xr_49 </args>
<args> 20 xe_22 xr_27 </args>
<args> 40 xe_23 xr_34 </args>
<args> 20 xe_23 xr_47 </args>
<args> 40 xe_23 xr_44 </args>
<args> 50 xe_24 xr_32 </args>
<args> 20 xe_25 xr_39 </args>
<args> 40 xe_27 xr_40 </args>
<args> 50 xe_27 xr_33 </args>
<args> 30 xe_27 xr_29 </args>
<args> 40 xe_35 xr_43 </args>
<args> 30 xe_41 xr_47 </args>
<args> 40 xe_43 xr_46 </args>
</group>
<group note="If interferences between two stations then must frequencies must be Delta apart...(receiving, emitting)">
<intension> lt(%0,dist(%1,%2)) </intension>
<args> 30 xr_0 xe_7 </args>
<args> 20 xr_0 xe_18 </args>
<args> 20 xr_0 xe_36 </args>
<args> 30 xr_0 xe_35 </args>
<args> 40 xr_0 xe_31 </args>
<args> 30 xr_1 xe_22 </args>
<args> 30 xr_1 xe_19 </args>
<args> 40 xr_2 xe_11 </args>
<args> 20 xr_2 xe_26 </args>
<args> 50 xr_3 xe_5 </args>
<args> 30 xr_3 xe_44 </args>
<args> 30 xr_3 xe_6 </args>
<args> 50 xr_4 xe_7 </args>
<args> 30 xr_5 xe_10 </args>
<args> 50 xr_6 xe_30 </args>
<args> 30 xr_6 xe_24 </args>
<args> 50 xr_6 xe_22 </args>
<args> 40 xr_6 xe_12 </args>
<args> 50 xr_6 xe_29 </args>
<args> 20 xr_6 xe_46 </args>
<args> 30 xr_6 xe_37 </args>
<args> 50 xr_6 xe_13 </args>
<args> 40 xr_6 xe_11 </args>
<args> 50 xr_7 xe_35 </args>
<args> 20 xr_8 xe_45 </args>
<args> 20 xr_9 xe_23 </args>
<args> 40 xr_10 xe_16 </args>
<args> 30 xr_10 xe_11 </args>
<args> 30 xr_12 xe_35 </args>
<args> 30 xr_13 xe_26 </args>
<args> 20 xr_13 xe_35 </args>
<args> 50 xr_14 xe_49 </args>
<args> 40 xr_15 xe_21 </args>
<args> 30 xr_15 xe_20 </args>
<args> 40 xr_16 xe_28 </args>
<args> 40 xr_16 xe_48 </args>
<args> 30 xr_17 xe_39 </args>
<args> 20 xr_17 xe_35 </args>
<args> 20 xr_18 xe_21 </args>
<args> 50 xr_18 xe_36 </args>
<args> 30 xr_19 xe_45 </args>
<args> 20 xr_19 xe_38 </args>
<args> 50 xr_19 xe_25 </args>
<args> 30 xr_19 xe_46 </args>
<args> 30 xr_22 xe_24 </args>
<args> 50 xr_22 xe_49 </args>
<args> 20 xr_22 xe_27 </args>
<args> 40 xr_23 xe_34 </args>
<args> 20 xr_23 xe_47 </args>
<args> 40 xr_23 xe_44 </args>
<args> 50 xr_24 xe_32 </args>
<args> 20 xr_25 xe_39 </args>
<args> 40 xr_27 xe_40 </args>
<args> 50 xr_27 xe_33 </args>
<args> 30 xr_27 xe_29 </args>
<args> 40 xr_35 xe_43 </args>
<args> 30 xr_41 xe_47 </args>
<args> 40 xr_43 xe_46 </args>
</group>
<group note="If interferences between two stations then must frequencies must be Delta apart...(receiving, receiving)">
<intension> lt(%0,dist(%1,%2)) </intension>
<args> 30 xr_0 xr_7 </args>
<args> 20 xr_0 xr_18 </args>
<args> 20 xr_0 xr_36 </args>
<args> 30 xr_0 xr_35 </args>
<args> 40 xr_0 xr_31 </args>
<args> 30 xr_1 xr_22 </args>
<args> 30 xr_1 xr_19 </args>
<args> 40 xr_2 xr_11 </args>
<args> 20 xr_2 xr_26 </args>
<args> 50 xr_3 xr_5 </args>
<args> 30 xr_3 xr_44 </args>
<args> 30 xr_3 xr_6 </args>
<args> 50 xr_4 xr_7 </args>
<args> 30 xr_5 xr_10 </args>
<args> 50 xr_6 xr_30 </args>
<args> 30 xr_6 xr_24 </args>
<args> 50 xr_6 xr_22 </args>
<args> 40 xr_6 xr_12 </args>
<args> 50 xr_6 xr_29 </args>
<args> 20 xr_6 xr_46 </args>
<args> 30 xr_6 xr_37 </args>
<args> 50 xr_6 xr_13 </args>
<args> 40 xr_6 xr_11 </args>
<args> 50 xr_7 xr_35 </args>
<args> 20 xr_8 xr_45 </args>
<args> 20 xr_9 xr_23 </args>
<args> 40 xr_10 xr_16 </args>
<args> 30 xr_10 xr_11 </args>
<args> 30 xr_12 xr_35 </args>
<args> 30 xr_13 xr_26 </args>
<args> 20 xr_13 xr_35 </args>
<args> 50 xr_14 xr_49 </args>
<args> 40 xr_15 xr_21 </args>
<args> 30 xr_15 xr_20 </args>
<args> 40 xr_16 xr_28 </args>
<args> 40 xr_16 xr_48 </args>
<args> 30 xr_17 xr_39 </args>
<args> 20 xr_17 xr_35 </args>
<args> 20 xr_18 xr_21 </args>
<args> 50 xr_18 xr_36 </args>
<args> 30 xr_19 xr_45 </args>
<args> 20 xr_19 xr_38 </args>
<args> 50 xr_19 xr_25 </args>
<args> 30 xr_19 xr_46 </args>
<args> 30 xr_22 xr_24 </args>
<args> 50 xr_22 xr_49 </args>
<args> 20 xr_22 xr_27 </args>
<args> 40 xr_23 xr_34 </args>
<args> 20 xr_23 xr_47 </args>
<args> 40 xr_23 xr_44 </args>
<args> 50 xr_24 xr_32 </args>
<args> 20 xr_25 xr_39 </args>
<args> 40 xr_27 xr_40 </args>
<args> 50 xr_27 xr_33 </args>
<args> 30 xr_27 xr_29 </args>
<args> 40 xr_35 xr_43 </args>
<args> 30 xr_41 xr_47 </args>
<args> 40 xr_43 xr_46 </args>
</group>
<group note="If stations linked then they must have the same emitting and receiving Frequency">
<intension> eq(%0,%1) </intension>
<args> xe_0 xr_4 </args>
<args> xe_5 xr_48 </args>
<args> xe_15 xr_19 </args>
<args> xe_19 xr_42 </args>
<args> xe_27 xr_39 </args>
</group>
<group note="If stations linked then they must have the same receiving and emitting Frequency">
<intension> eq(%0,%1) </intension>
<args> xr_0 xe_4 </args>
<args> xr_5 xe_48 </args>
<args> xr_15 xe_19 </args>
<args> xr_19 xe_42 </args>
<args> xr_27 xe_39 </args>
</group>
<nValues note="Limit on number of frequencies per region">
<list> xe_6 xr_6 xe_13 xr_13 xe_15 xr_15 xe_20 xr_20 xe_26 xr_26 xe_36 xr_36 xe_37 xr_37 </list>
<condition> (le,13) </condition>
</nValues>
<nValues note="Limit on number of frequencies per region">
<list> xe_8 xr_8 xe_24 xr_24 xe_30 xr_30 xe_32 xr_32 xe_38 xr_38 xe_42 xr_42 xe_45 xr_45 </list>
<condition> (le,13) </condition>
</nValues>
<nValues note="Limit on number of frequencies per region">
<list> xe_0 xr_0 xe_3 xr_3 xe_4 xr_4 xe_7 xr_7 xe_18 xr_18 xe_21 xr_21 </list>
<condition> (le,12) </condition>
</nValues>
<nValues note="Limit on number of frequencies per region">
<list> xe_1 xr_1 xe_14 xr_14 xe_22 xr_22 xe_25 xr_25 xe_27 xr_27 xe_33 xr_33 xe_40 xr_40 xe_49 xr_49 </list>
<condition> (le,15) </condition>
</nValues>
<nValues note="Limit on number of frequencies per region">
<list> xe_9 xr_9 xe_23 xr_23 xe_34 xr_34 xe_35 xr_35 xe_41 xr_41 xe_44 xr_44 xe_47 xr_47 </list>
<condition> (le,14) </condition>
</nValues>
<nValues note="Limit on number of frequencies per region">
<list> xe_2 xr_2 xe_5 xr_5 xe_10 xr_10 xe_11 xr_11 xe_16 xr_16 xe_28 xr_28 xe_31 xr_31 xe_48 xr_48 </list>
<condition> (le,14) </condition>
</nValues>
<nValues note="Limit on number of frequencies per region">
<list> xe_12 xr_12 xe_17 xr_17 xe_19 xr_19 xe_29 xr_29 xe_39 xr_39 xe_43 xr_43 xe_46 xr_46 </list>
<condition> (le,14) </condition>
</nValues>
<maximum>
<list> xe_0 xr_0 xe_1 xr_1 xe_2 xr_2 xe_3 xr_3 xe_4 xr_4 xe_5 xr_5 xe_6 xr_6 xe_7 xr_7 xe_8 xr_8 xe_9 xr_9 xe_10 xr_10 xe_11 xr_11 xe_12 xr_12 xe_13 xr_13 xe_14 xr_14 xe_15 xr_15 xe_16 xr_16 xe_17 xr_17 xe_18 xr_18 xe_19 xr_19 xe_20 xr_20 xe_21 xr_21 xe_22 xr_22 xe_23 xr_23 xe_24 xr_24 xe_25 xr_25 xe_26 xr_26 xe_27 xr_27 xe_28 xr_28 xe_29 xr_29 xe_30 xr_30 xe_31 xr_31 xe_32 xr_32 xe_33 xr_33 xe_34 xr_34 xe_35 xr_35 xe_36 xr_36 xe_37 xr_37 xe_38 xr_38 xe_39 xr_39 xe_40 xr_40 xe_41 xr_41 xe_42 xr_42 xe_43 xr_43 xe_44 xr_44 xe_45 xr_45 xe_46 xr_46 xe_47 xr_47 xe_48 xr_48 xe_49 xr_49 </list>
<condition> (eq,maxFrequency) </condition>
</maximum>
<minimum>
<list> xe_0 xr_0 xe_1 xr_1 xe_2 xr_2 xe_3 xr_3 xe_4 xr_4 xe_5 xr_5 xe_6 xr_6 xe_7 xr_7 xe_8 xr_8 xe_9 xr_9 xe_10 xr_10 xe_11 xr_11 xe_12 xr_12 xe_13 xr_13 xe_14 xr_14 xe_15 xr_15 xe_16 xr_16 xe_17 xr_17 xe_18 xr_18 xe_19 xr_19 xe_20 xr_20 xe_21 xr_21 xe_22 xr_22 xe_23 xr_23 xe_24 xr_24 xe_25 xr_25 xe_26 xr_26 xe_27 xr_27 xe_28 xr_28 xe_29 xr_29 xe_30 xr_30 xe_31 xr_31 xe_32 xr_32 xe_33 xr_33 xe_34 xr_34 xe_35 xr_35 xe_36 xr_36 xe_37 xr_37 xe_38 xr_38 xe_39 xr_39 xe_40 xr_40 xe_41 xr_41 xe_42 xr_42 xe_43 xr_43 xe_44 xr_44 xe_45 xr_45 xe_46 xr_46 xe_47 xr_47 xe_48 xr_48 xe_49 xr_49 </list>
<condition> (eq,minFrequency) </condition>
</minimum>
<intension> eq(spanFrequency,dist(minFrequency,maxFrequency)) </intension>
</constraints>
<objectives>
<minimize> spanFrequency </minimize>
</objectives>
</instance>
